p tw 50 136
e 0 7
e 0 17
e 0 27
e 0 46
e 0 49
e 1 10
e 1 12
e 1 15
e 1 19
e 1 20
e 1 35
e 1 37
e 1 47
e 2 5
e 2 14
e 2 16
e 2 46
e 3 20
e 4 11
e 4 18
e 4 21
e 4 26
e 4 33
e 4 40
e 4 42
e 5 16
e 5 47
e 6 30
e 6 36
e 7 8
e 7 23
e 7 28
e 7 33
e 7 47
e 8 9
e 8 10
e 8 21
e 8 41
e 8 43
e 9 11
e 9 13
e 9 41
e 9 42
e 9 44
e 9 48
e 10 15
e 10 28
e 10 43
e 10 45
e 11 23
e 11 24
e 11 27
e 11 32
e 11 33
e 11 37
e 11 39
e 11 41
e 11 45
e 11 46
e 12 15
e 12 23
e 12 37
e 12 42
e 12 44
e 12 48
e 13 14
e 13 18
e 13 37
e 13 42
e 13 45
e 13 46
e 14 21
e 14 25
e 14 46
e 14 48
e 15 36
e 15 38
e 15 49
e 16 22
e 16 40
e 16 41
e 17 18
e 17 34
e 18 26
e 18 40
e 19 20
e 19 35
e 20 21
e 20 27
e 20 38
e 21 29
e 21 33
e 21 35
e 21 41
e 21 44
e 21 47
e 22 25
e 22 30
e 22 35
e 22 43
e 22 44
e 23 42
e 23 47
e 24 30
e 24 41
e 25 33
e 25 39
e 25 41
e 25 44
e 26 35
e 27 28
e 27 29
e 27 49
e 28 31
e 28 32
e 28 36
e 28 45
e 28 47
e 28 48
e 29 33
e 29 40
e 30 31
e 30 33
e 32 35
e 32 43
e 32 44
e 32 48
e 33 42
e 34 39
e 35 43
e 37 39
e 37 49
e 39 49
e 41 48
e 42 45
e 44 48
